Optimal - objective value 7.77611900
      0 r_0                         0                       1
      1 r_1                         0                       1
      2 r_2                         1                       1
      3 r_3                         0                       1
      4 r_4                         0                       1
      5 r_5                         0                0.985075
      6 r_6                         0                0.985075
      7 r_7                         0                0.970149
      8 r_8                         1                0.940299
      9 r_9                         1                0.910448
     10 r_10                        1                0.820896
     11 r_11                        0                0.776119
     12 r_12                        1                0.776119
     13 r_13                        1                0.776119
     14 r_14                        0                0.776119
     15 r_15                        1                0.776119
     16 b_0                         1                       1
     17 b_1                         0                       1
     18 b_2                         0                       1
     19 b_3                         0                       1
     20 b_4                         0                       1
     21 b_5                         0                0.985075
     22 b_6                         0                0.985075
     23 b_7                         0                0.970149
     24 b_8                         0                0.940299
     25 b_9                         0                0.910448
     26 b_10                        0                0.820896
     27 b_11                        1                0.776119
     28 b_12                        0                0.776119
     29 b_13                        0                0.776119
     30 b_14                        0                0.776119
     31 b_15                        0                0.776119
